(set-info :source |printed by MathSAT|)
(declare-fun |.x{78}| () Int)
(declare-fun |.y{7}| () Int)
(declare-fun |.y{6}| () Int)
(declare-fun |.y{8}| () Int)
(declare-fun |.x{79}| () (Array Int Int))
(declare-fun |.y{9}| () (Array Int Int))
(declare-fun |.x{77}| () Int)
(declare-fun |.y{10}| () Int)
(declare-fun |.x{74}| () Int)
(declare-fun |.y{11}| () Int)
(declare-fun |.loc{3}| () Bool)
(declare-fun |.loc{5}| () Bool)
(declare-fun |.loc{4}| () Bool)
(declare-fun |.loc{6}| () Bool)
(declare-fun |.x{80}| () Int)
(define-fun .def_18 () Bool (! |.loc{3}| :next |.loc{5}|))
(define-fun .def_65 () Bool (not .def_18))
(define-fun .def_20 () Bool (! |.loc{4}| :next |.loc{6}|))
(define-fun .def_42 () Bool (not .def_20))
(define-fun .def_119 () Bool (! (and .def_42 .def_65) :init true))
(define-fun .def_12 () (Array Int Int) (! |.x{79}| :next |.y{9}|))
(define-fun .def_71 () Int (select .def_12 |.x{80}|))
(define-fun .def_72 () Bool (<= .def_71 (- 1)))
(define-fun .def_107 () Bool (and |.loc{5}| .def_72))
(define-fun .def_37 () Int (* (- 1) |.x{80}|))
(define-fun .def_14 () Int (! |.x{77}| :next |.y{10}|))
(define-fun .def_76 () Int (+ .def_14 .def_37))
(define-fun .def_8 () Int (! |.x{78}| :next |.y{7}|))
(define-fun .def_77 () Int (+ .def_8 .def_76))
(define-fun .def_78 () Bool (= .def_77 0))
(define-fun .def_108 () Bool (and .def_78 .def_107))
(define-fun .def_16 () Int (! |.x{74}| :next |.y{11}|))
(define-fun .def_82 () Bool (<= .def_16 .def_14))
(define-fun .def_83 () Bool (not .def_82))
(define-fun .def_109 () Bool (and .def_83 .def_108))
(define-fun .def_110 () Bool (and .def_20 .def_109))
(define-fun .def_111 () Bool (and .def_65 .def_110))
(define-fun .def_51 () Bool (<= .def_8 0))
(define-fun .def_49 () Bool (<= |.x{80}| 0))
(define-fun .def_50 () Bool (not .def_49))
(define-fun .def_52 () Bool (or .def_50 .def_51))
(define-fun .def_112 () Bool (and .def_52 .def_111))
(define-fun .def_54 () Bool (not .def_51))
(define-fun .def_113 () Bool (and .def_54 .def_112))
(define-fun .def_105 () Bool (= .def_14 |.y{11}|))
(define-fun .def_99 () Bool (= |.y{10}| 0))
(define-fun .def_80 () Bool (not |.loc{5}|))
(define-fun .def_98 () Bool (and .def_42 .def_80))
(define-fun .def_100 () Bool (and .def_98 .def_99))
(define-fun .def_101 () Bool (and .def_18 .def_100))
(define-fun .def_10 () Int (! |.y{6}| :next |.y{8}|))
(define-fun .def_32 () Bool (<= .def_14 .def_10))
(define-fun .def_102 () Bool (and .def_32 .def_101))
(define-fun .def_45 () Bool (= .def_8 |.y{7}|))
(define-fun .def_103 () Bool (and .def_45 .def_102))
(define-fun .def_92 () Bool (= .def_12 |.y{9}|))
(define-fun .def_104 () Bool (and .def_92 .def_103))
(define-fun .def_106 () Bool (and .def_104 .def_105))
(define-fun .def_114 () Bool (or .def_106 .def_113))
(define-fun .def_95 () Bool (= .def_16 |.y{11}|))
(define-fun .def_88 () Int (* (- 1) |.y{10}|))
(define-fun .def_89 () Int (+ .def_14 .def_88))
(define-fun .def_90 () Bool (= .def_89 (- 1)))
(define-fun .def_73 () Bool (not .def_72))
(define-fun .def_79 () Bool (and .def_73 .def_78))
(define-fun .def_81 () Bool (and .def_79 .def_80))
(define-fun .def_84 () Bool (and .def_81 .def_83))
(define-fun .def_85 () Bool (and .def_20 .def_84))
(define-fun .def_86 () Bool (and .def_65 .def_85))
(define-fun .def_87 () Bool (and .def_45 .def_86))
(define-fun .def_91 () Bool (and .def_87 .def_90))
(define-fun .def_93 () Bool (and .def_91 .def_92))
(define-fun .def_94 () Bool (and .def_52 .def_93))
(define-fun .def_96 () Bool (and .def_94 .def_95))
(define-fun .def_97 () Bool (and .def_54 .def_96))
(define-fun .def_115 () Bool (or .def_97 .def_114))
(define-fun .def_116 () Bool (and |.loc{6}| .def_115))
(define-fun .def_67 () Bool (<= |.y{7}| 0))
(define-fun .def_68 () Bool (not .def_67))
(define-fun .def_62 () Bool (<= |.y{10}| (- 1)))
(define-fun .def_63 () Bool (not .def_62))
(define-fun .def_59 () Bool (<= |.y{10}| |.x{80}|))
(define-fun .def_35 () Bool (not |.loc{6}|))
(define-fun .def_57 () Bool (and |.loc{5}| .def_35))
(define-fun .def_56 () Bool (= |.y{8}| 0))
(define-fun .def_58 () Bool (and .def_56 .def_57))
(define-fun .def_60 () Bool (and .def_58 .def_59))
(define-fun .def_61 () Bool (and .def_42 .def_60))
(define-fun .def_64 () Bool (and .def_61 .def_63))
(define-fun .def_66 () Bool (and .def_64 .def_65))
(define-fun .def_69 () Bool (and .def_66 .def_68))
(define-fun .def_70 () Bool (and .def_50 .def_69))
(define-fun .def_117 () Bool (or .def_70 .def_116))
(define-fun .def_47 () Bool (= .def_14 |.y{10}|))
(define-fun .def_38 () Int (+ .def_10 .def_37))
(define-fun .def_39 () Int (+ .def_8 .def_38))
(define-fun .def_40 () Bool (= .def_39 0))
(define-fun .def_33 () Bool (not .def_32))
(define-fun .def_29 () (Array Int Int) (store .def_12 |.x{80}| 0))
(define-fun .def_30 () Bool (= |.y{9}| .def_29))
(define-fun .def_23 () Int (* (- 1) |.y{8}|))
(define-fun .def_24 () Int (+ .def_10 .def_23))
(define-fun .def_25 () Bool (= .def_24 (- 1)))
(define-fun .def_26 () Bool (and |.loc{5}| .def_25))
(define-fun .def_31 () Bool (and .def_26 .def_30))
(define-fun .def_34 () Bool (and .def_31 .def_33))
(define-fun .def_36 () Bool (and .def_34 .def_35))
(define-fun .def_41 () Bool (and .def_36 .def_40))
(define-fun .def_43 () Bool (and .def_41 .def_42))
(define-fun .def_44 () Bool (and .def_18 .def_43))
(define-fun .def_46 () Bool (and .def_44 .def_45))
(define-fun .def_48 () Bool (and .def_46 .def_47))
(define-fun .def_53 () Bool (and .def_48 .def_52))
(define-fun .def_55 () Bool (and .def_53 .def_54))
(define-fun .def_118 () Bool (! (or .def_55 .def_117) :trans true))
(define-fun .def_120 () Bool (and .def_18 .def_20))
(define-fun .def_121 () Bool (! (not .def_120) :invar-property 0))
(assert true)
